p wcnf 150 178 179 
1 -128 -32 0 
1 -137 65 0 
1 -85 150 0 
1 -90 127 0 
1 -111 -42 0 
1 -114 44 0 
1 54 -75 0 
1 -52 -53 0 
1 31 -66 0 
1 11 -126 0 
1 27 -41 0 
1 46 -53 0 
1 -32 138 0 
1 -130 -114 0 
1 109 28 0 
1 103 -51 0 
1 -14 68 0 
1 -19 40 0 
1 -121 74 0 
1 -65 -120 0 
1 -65 13 0 
1 -46 -11 0 
1 13 -126 0 
1 129 -21 0 
1 26 -85 0 
1 -70 46 0 
1 82 141 0 
1 -82 49 0 
1 81 106 0 
1 -128 -112 0 
1 -46 115 0 
1 110 81 0 
1 -22 23 0 
1 49 -42 0 
1 98 30 0 
1 102 78 0 
1 -41 89 0 
1 108 -122 0 
1 93 -118 0 
1 -105 47 0 
1 -26 103 0 
1 -34 70 0 
1 108 82 0 
1 -10 58 0 
1 -8 113 0 
1 -44 -134 0 
1 -84 25 0 
1 14 -15 0 
1 95 -142 0 
1 39 -98 0 
1 109 -89 0 
1 -4 -117 0 
1 102 -36 0 
1 -21 -129 0 
1 -71 -105 0 
1 -55 -7 0 
1 -52 73 0 
1 -5 34 0 
1 90 74 0 
1 141 121 0 
1 87 94 0 
1 -71 -60 0 
1 -140 -24 0 
1 90 -49 0 
1 3 111 0 
1 77 -76 0 
1 -82 40 0 
1 -54 -53 0 
1 137 121 0 
1 46 34 0 
1 -16 -64 0 
1 -10 -79 0 
1 91 -105 0 
1 -128 68 0 
1 -47 54 0 
1 -109 58 0 
1 82 -20 0 
1 11 128 0 
1 -15 -33 0 
1 19 -52 0 
1 -86 -99 0 
1 -124 -106 0 
1 -15 82 0 
1 39 -86 0 
1 18 -53 0 
1 -126 86 0 
1 100 149 0 
1 -41 -126 0 
1 124 -70 0 
1 55 -110 0 
1 -57 45 0 
1 -8 -53 0 
1 139 92 0 
1 -16 -119 0 
1 78 -111 0 
1 106 -84 0 
1 148 142 0 
1 -144 -71 0 
1 -22 121 0 
1 -122 59 0 
1 77 -39 0 
1 -111 -109 0 
1 145 -62 0 
1 -48 -107 0 
1 -51 83 0 
1 83 -116 0 
1 145 35 0 
1 -149 64 0 
1 -131 146 0 
1 -26 49 0 
1 3 12 0 
1 143 30 0 
1 97 149 0 
1 122 58 0 
1 65 -37 0 
1 88 127 0 
1 122 80 0 
1 -110 -23 0 
1 40 -64 0 
1 -109 -143 0 
1 67 -107 0 
1 28 116 0 
1 18 -89 0 
1 -135 -77 0 
1 -142 139 0 
1 -111 119 0 
1 146 59 0 
1 -137 -67 0 
1 117 -105 0 
1 -137 -71 0 
1 -86 13 0 
1 29 -8 0 
1 -39 -94 0 
1 -48 -37 0 
1 35 -97 0 
1 -64 -36 0 
1 82 55 0 
1 105 85 0 
1 107 94 0 
1 67 91 0 
1 120 -99 0 
1 124 16 0 
1 -14 21 0 
1 -18 -131 0 
1 80 79 0 
1 39 -130 0 
1 -141 -71 0 
1 -22 -117 0 
1 -78 -74 0 
1 -69 137 0 
1 -103 13 0 
1 -69 87 0 
1 -27 72 0 
1 41 47 0 
1 109 -15 0 
1 62 -10 0 
1 -138 -66 0 
1 -138 136 0 
1 -51 142 0 
1 -141 -3 0 
1 110 -130 0 
1 138 -27 0 
1 71 87 0 
1 -129 41 0 
1 2 94 0 
1 129 140 0 
1 19 -139 0 
1 89 -129 0 
1 -78 82 0 
1 -146 19 0 
1 -29 12 0 
1 -7 -35 0 
1 139 -130 0 
1 124 87 0 
1 3 145 0 
1 3 -109 0 
1 112 127 0 
1 -55 107 0 
